(set-info :smt-lib-version 2.6)
(set-logic UFNIA)
(set-info :source |
Generated by: Geoff Sutcliffe
Generated on: 2026-03-11
Generator: TPTPWorld
Application: Benchmarking automated theorem provers
Time limit: 120.0

These benchmarks are translations from the TPTP Library (Thousands of
Problems for Theorem Provers), see http://www.cs.miami.edu/~tptp/

The TPTP is maintained by Geoff Sutcliffe, and he contributed this
selection of benchmarks to SMT-LIB.  They were exported from the
v9.2.1 realease of TPTP.
|)
(set-info :category "industrial")
(set-info :status unknown)
; SZS status Success
(declare-sort $$unsorted 0)
(declare-sort tptp.uni 0)
(declare-sort tptp.ty 0)
(declare-fun tptp.sort1 (tptp.ty tptp.uni) Bool)
(declare-fun tptp.witness1 (tptp.ty) tptp.uni)
(assert (forall ((A tptp.ty)) (tptp.sort1 A (tptp.witness1 A))))
(declare-fun tptp.int () tptp.ty)
(declare-fun tptp.real () tptp.ty)
(declare-sort tptp.bool1 0)
(declare-fun tptp.bool () tptp.ty)
(declare-fun tptp.true1 () tptp.bool1)
(declare-fun tptp.false1 () tptp.bool1)
(declare-fun tptp.match_bool1 (tptp.ty tptp.bool1 tptp.uni tptp.uni) tptp.uni)
(assert (forall ((A tptp.ty) (X tptp.bool1) (X1 tptp.uni) (X2 tptp.uni)) (tptp.sort1 A (tptp.match_bool1 A X X1 X2))))
(assert (forall ((A tptp.ty) (Z tptp.uni) (Z1 tptp.uni)) (=> (tptp.sort1 A Z) (= (tptp.match_bool1 A tptp.true1 Z Z1) Z))))
(assert (forall ((A tptp.ty) (Z tptp.uni) (Z1 tptp.uni)) (=> (tptp.sort1 A Z1) (= (tptp.match_bool1 A tptp.false1 Z Z1) Z1))))
(assert (not (= tptp.true1 tptp.false1)))
(assert (forall ((U tptp.bool1)) (or (= U tptp.true1) (= U tptp.false1))))
(declare-sort tptp.tuple02 0)
(declare-fun tptp.tuple0 () tptp.ty)
(declare-fun tptp.tuple03 () tptp.tuple02)
(assert (forall ((U tptp.tuple02)) (= U tptp.tuple03)))
(declare-fun tptp.qtmark () tptp.ty)
(assert (forall ((X Int) (Y Int) (Z Int)) (=> (<= X Y) (=> (<= 0 Z) (<= (* X Z) (* Y Z))))))
(declare-fun tptp.ref (tptp.ty) tptp.ty)
(declare-fun tptp.mk_ref (tptp.ty tptp.uni) tptp.uni)
(assert (forall ((A tptp.ty) (X tptp.uni)) (tptp.sort1 (tptp.ref A) (tptp.mk_ref A X))))
(declare-fun tptp.contents (tptp.ty tptp.uni) tptp.uni)
(assert (forall ((A tptp.ty) (X tptp.uni)) (tptp.sort1 A (tptp.contents A X))))
(assert (forall ((A tptp.ty) (U tptp.uni)) (=> (tptp.sort1 A U) (= (tptp.contents A (tptp.mk_ref A U)) U))))
(assert (forall ((A tptp.ty) (U tptp.uni)) (=> (tptp.sort1 (tptp.ref A) U) (= U (tptp.mk_ref A (tptp.contents A U))))))
(declare-fun tptp.even1 (Int) Bool)
(assert (tptp.even1 0))
(assert (forall ((X Int)) (=> (tptp.even1 X) (tptp.even1 (+ X 2)))))
(assert (forall ((Z Int)) (=> (tptp.even1 Z) (or (= Z 0) (exists ((X Int)) (and (tptp.even1 X) (= Z (+ X 2))))))))
(assert (forall ((X Int)) (=> (tptp.even1 X) (=> (tptp.even1 (+ X 1)) false))))
(declare-fun tptp.fact1 (Int) Int)
(assert (= (tptp.fact1 0) 1))
(assert (forall ((N Int)) (=> (< 0 N) (= (tptp.fact1 N) (* N (tptp.fact1 (- N 1)))))))
(assert (not (forall ((X Int)) (=> (<= 0 X) (forall ((Y Int)) (=> (= Y 1) (forall ((Z Int)) (=> (= Z X) (and (<= 0 Z) (= (* Y (tptp.fact1 Z)) (tptp.fact1 X)) (forall ((Z1 Int) (Y1 Int)) (let ((_let_1 (tptp.fact1 X))) (let ((_let_2 (not (= Z1 0)))) (=> (and (<= 0 Z1) (= (* Y1 (tptp.fact1 Z1)) _let_1)) (and (=> _let_2 (forall ((Y2 Int)) (=> (= Y2 (* Y1 Z1)) (forall ((Z2 Int)) (=> (= Z2 (- Z1 1)) (and (<= 0 Z2) (= (* Y2 (tptp.fact1 Z2)) (tptp.fact1 X)) (<= 0 Z1) (< Z2 Z1))))))) (=> (not _let_2) (= Y1 _let_1))))))))))))))))
(check-sat)
(exit)
